benchmarks/find_max_three/easy.sl
;; Easy: Maximum of Three Numbers
;; Simple specification for pairwise maximum
;; Expected solution: ifelse conditions to find max of three values

(set-logic LIA)

(synth-fun max3 ((x Int) (y Int) (z Int)) Int)

(declare-var x Int)
(declare-var y Int)
(declare-var z Int)

;; Result is >= all inputs
(constraint (>= (max3 x y z) x))
(constraint (>= (max3 x y z) y))
(constraint (>= (max3 x y z) z))

;; Result is one of the inputs
(constraint (or (= x (max3 x y z)) 
                (or (= y (max3 x y z)) (= z (max3 x y z)))))

(check-synth)
